&FORCE_EVAL
  METHOD QUICKSTEP
  &DFT
    BASIS_SET_FILE_NAME  BASIS_MOLOPT_UZH
    POTENTIAL_FILE_NAME  POTENTIAL_UZH
    &MGRID
      CUTOFF 100
    &END MGRID
    &QS
      EPS_DEFAULT 1.0E-10
    &END QS
    &SCF
      SCF_GUESS RESTART
      EPS_SCF 1.0E-7
      MAX_SCF 500
      ADDED_MOS -1
      CHOLESKY INVERSE
      &SMEAR ON
         METHOD FERMI_DIRAC
         ELECTRONIC_TEMPERATURE [K] 300
      &END SMEAR
      &DIAGONALIZATION
         ALGORITHM STANDARD
      &END DIAGONALIZATION
      &MIXING
         METHOD BROYDEN_MIXING
         ALPHA 0.1
         BETA 1.5
         NBROYDEN 8
      &END
    &END SCF
    &POISSON
      PERIODIC NONE
      POISSON_SOLVER MT
    &END POISSON
    &XC
      &XC_FUNCTIONAL PBE
      &END XC_FUNCTIONAL
    &END XC
    &REAL_TIME_PROPAGATION
      EPS_ITER 1.0E-8 ! Check convergence
      PERIODIC .FALSE.
      MAX_ITER 30
      MAT_EXP ARNOLDI
      EXP_ACCURACY 1.0E-14 ! Less than EPS_ITER
!      INITIAL_WFN RT_RESTART
      APPLY_DELTA_PULSE
      DELTA_PULSE_DIRECTION 0 0 1
      DELTA_PULSE_SCALE 0.001 ! Small
    &END REAL_TIME_PROPAGATION
    &PRINT
      &MOMENTS
          FILENAME MOMENTS
          PERIODIC FALSE
      &END MOMENTS
    &END PRINT
  &END DFT
  &SUBSYS
    &CELL
      ABC 33 33 55
      PERIODIC NONE
    &END CELL
    &TOPOLOGY
      &CENTER_COORDINATES
      &END CENTER_COORDINATES
      COORD_FILE_NAME   struc.xyz
      COORD_FILE_FORMAT XYZ
    &END TOPOLOGY
    &KIND Na
      BASIS_SET ORB    DZVP-MOLOPT-PBE-GTH-q1
      POTENTIAL        GTH-PBE-q1
    &END KIND
  &END SUBSYS
&END FORCE_EVAL
&GLOBAL
  PROJECT        Propagation_metal_cluster
  RUN_TYPE       RT_PROPAGATION
!  PRINT_LEVEL    DEBUG
  EXTENDED_FFT_LENGTHS
&END GLOBAL
&MOTION
    &MD
      ENSEMBLE NVE
      STEPS 25000
      ! timestep in femtoseconds
      TIMESTEP  0.02
      TEMPERATURE 300.0
    &END MD
    &PRINT
       &TRAJECTORY
          &EACH
             MD 1
          &END
       &END
    &END
&END MOTION
