&FORCE_EVAL
  METHOD QUICKSTEP
  &DFT
    CHARGE 1
    BASIS_SET_FILE_NAME  BASIS_MOLOPT_UZH
    POTENTIAL_FILE_NAME  POTENTIAL_UZH
    &MGRID
      CUTOFF 100
    &END MGRID
    &QS
      EPS_DEFAULT 1.0E-10
    &END QS
    &SCF
      SCF_GUESS RESTART
      EPS_SCF 1.0E-7
      MAX_SCF 500
      ADDED_MOS -1
      CHOLESKY INVERSE
      &SMEAR ON
         METHOD FERMI_DIRAC
         ELECTRONIC_TEMPERATURE [K] 300
      &END SMEAR
      &DIAGONALIZATION
         ALGORITHM STANDARD
      &END DIAGONALIZATION
      &MIXING
         METHOD BROYDEN_MIXING
         ALPHA 0.1
         BETA 1.5
         NBROYDEN 8
      &END
    &END SCF

    &POISSON
      PERIODIC NONE
      POISSON_SOLVER MT
    &END POISSON

    &XC
      &XC_FUNCTIONAL PBE
      &END XC_FUNCTIONAL
    &END XC


    &EFIELD
      INTENSITY 4.8e8   
      WAVELENGTH [nm] 496.0      
      PHASE 0.0
      POLARISATION 1 0 0   
      ENVELOP GAUSSIAN
      &GAUSSIAN_ENV
        SIGMA [fs] 10.6          
        T0 [fs] 30.0            
      &END GAUSSIAN_ENV
    &END EFIELD
  

    &REAL_TIME_PROPAGATION
      EPS_ITER 1.0E-8
      PERIODIC .FALSE.
      MAX_ITER 30
      MAT_EXP ARNOLDI
      EXP_ACCURACY 1.0E-14
!     INITIAL_WFN RT_RESTART
    &END REAL_TIME_PROPAGATION

    &PRINT
      &MOMENTS
          FILENAME MOMENTS
          PERIODIC FALSE
      &END MOMENTS
    &END PRINT
  &END DFT

  &SUBSYS
    &CELL
      ABC 42 42 80
      PERIODIC NONE
    &END CELL
    &TOPOLOGY
      &CENTER_COORDINATES
      &END CENTER_COORDINATES
      COORD_FILE_NAME   struc.xyz
      COORD_FILE_FORMAT XYZ
    &END TOPOLOGY
    &KIND Na
      BASIS_SET ORB    DZVP-MOLOPT-PBE-GTH-q1
      POTENTIAL        GTH-PBE-q1
    &END KIND
  &END SUBSYS
&END FORCE_EVAL

&GLOBAL
  PROJECT        Propagation_metal_cluster
  RUN_TYPE       RT_PROPAGATION
!  PRINT_LEVEL    DEBUG
  EXTENDED_FFT_LENGTHS
&END GLOBAL

&MOTION
    &MD
      ENSEMBLE NVE
      STEPS  10000
      TIMESTEP  0.01     ! fs
      TEMPERATURE 300.0
    &END MD
    &PRINT
       &TRAJECTORY
          &EACH
             MD 1
          &END
       &END
    &END
&END MOTION
